76 300 190 81 180 123 187 194 286 229 118 29 30 285 272 238 187 227 266 204 134 209 89 275 253 254 169 280 250 8 220 126 283 110 206 163 284 92 108 270 72 225 50 154 262 73 91 200 299 108 103 184 68 191 158 20 196 78 300 146 85 219 271 68 80 229 282 64 20 89 85 144 14 134 297 275 206 139 